SPARKNaCl/why3-z3/sparknacl-sign.ads_51_38_overflow_check2_1.smt2
;; produced by z3_gnatprove.drv ;;
(set-info :smt-lib-version 2.5)
(set-info :source |VC generated by SPARK 2014|)
(set-info :category industrial)
(set-info :status unknown)
;;; generated by SMT-LIB2 driver
;;; SMT-LIB2 driver: bit-vectors, common part
;;; SMT-LIB2: integer arithmetic
(declare-datatypes ()
  ((int__ref (int__refqtmk (int__content Int)))))

(declare-sort byte 0)

;; "to_rep"
(declare-fun to_rep (byte) (_ BitVec 8))

;; "of_rep"
(declare-fun of_rep ((_ BitVec 8)) byte)

;; "inversion_axiom"
(assert
  (forall ((x byte)) (! (= (of_rep (to_rep x)) x) :pattern ((to_rep x)) )))

;; "range_axiom"
(assert true)

;; "coerce_axiom"
(assert
  (forall ((x (_ BitVec 8)))
    (! (= (to_rep (of_rep x)) x) :pattern ((to_rep (of_rep x))) )))

(declare-sort map1 0)

(declare-datatypes ()
  ((map__ref (map__refqtmk (map__content map1)))))

;; "has_bounds"
(declare-fun has_bounds (map1
  Int
  Int) Bool)

(declare-datatypes ()
  ((us_split_fields
   (us_split_fieldsqtmk (rec__ada___sparknacl__sign__signing_sk__f map1)))))

(declare-datatypes ()
  ((us_rep (us_repqtmk (us_split_fields1 us_split_fields)))))

(declare-sort map2 0)

(declare-datatypes ()
  ((map__ref1 (map__refqtmk1 (map__content1 map2)))))

;; "has_bounds"
(declare-fun has_bounds1 (map2
  Int
  Int) Bool)

;; "dynamic_invariant"
(define-fun dynamic_invariant ((temp___expr_581 us_rep) (temp___is_init_577 Bool) (temp___skip_constant_578 Bool) (temp___do_toplevel_579 Bool) (temp___do_typ_inv_580 Bool)) Bool
  (has_bounds
    (rec__ada___sparknacl__sign__signing_sk__f
      (us_split_fields1 temp___expr_581))
    0
    63))

(declare-sort tinteger_32B 0)

;; "tinteger_32B'int"
(declare-fun tinteger_32Bqtint (tinteger_32B) Int)

;; "tinteger_32B'axiom"
(assert
  (forall ((i tinteger_32B))
    (and
      (<= (- 2147483648) (tinteger_32Bqtint i))
      (<= (tinteger_32Bqtint i) 2147483647))))

;; "in_range"
(define-fun in_range ((x Int)) Bool
  (and (<= (- 2147483648) x) (<= x 2147483647)))

(declare-const sm__first tinteger_32B)

(declare-const sm__last tinteger_32B)

;; "to_rep"
(define-fun to_rep1 ((x tinteger_32B)) Int
  (tinteger_32Bqtint x))

;; "of_rep"
(declare-fun of_rep1 (Int) tinteger_32B)

;; "inversion_axiom"
(assert
  (forall ((x tinteger_32B))
    (! (= (of_rep1 (to_rep1 x)) x) :pattern ((to_rep1 x)) )))

;; "range_axiom"
(assert
  (forall ((x tinteger_32B))
    (! (in_range (to_rep1 x)) :pattern ((to_rep1 x)) )))

;; "coerce_axiom"
(assert
  (forall ((x Int))
    (! (=> (in_range x) (= (to_rep1 (of_rep1 x)) x)) :pattern ((to_rep1
                                                                 (of_rep1 x))) )))

;; "in_range"
(define-fun in_range1 ((x Int)) Bool
  (and (<= 0 x) (<= x 2147483647)))

(declare-datatypes ()
  ((t (tqtmk (rec__first tinteger_32B)(rec__last tinteger_32B)))))

;; "dynamic_property"
(define-fun dynamic_property ((range_first Int) (range_last Int) (low Int) (high Int)) Bool
  (and
    (in_range low)
    (and
      (in_range high)
      (=> (<= low high) (and (in_range1 low) (in_range1 high))))))

(declare-datatypes ()
  ((us_t (us_tqtmk (elts map1)(rt t)))))

;; "first"
(define-fun first ((a us_t)) Int
  (to_rep1 (rec__first (rt a))))

;; "last"
(define-fun last ((a us_t)) Int
  (to_rep1 (rec__last (rt a))))

;; "well_formed"
(define-fun well_formed ((a us_t)) Bool
  (has_bounds
    (elts a)
    (to_rep1 (rec__first (rt a)))
    (to_rep1 (rec__last (rt a)))))

(declare-const m us_t)

(declare-const sk us_rep)

(declare-sort i64 0)

;; "i64'int"
(declare-fun i64qtint (i64) Int)

;; "i64'axiom"
(assert
  (forall ((i i64))
    (and
      (<= (- 9223372036854775808) (i64qtint i))
      (<= (i64qtint i) 9223372036854775807))))

;; "in_range"
(define-fun in_range2 ((x Int)) Bool
  (and (<= (- 9223372036854775808) x) (<= x 9223372036854775807)))

;; "to_rep"
(define-fun to_rep2 ((x i64)) Int
  (i64qtint x))

;; "of_rep"
(declare-fun of_rep2 (Int) i64)

;; "inversion_axiom"
(assert
  (forall ((x i64)) (! (= (of_rep2 (to_rep2 x)) x) :pattern ((to_rep2 x)) )))

;; "range_axiom"
(assert
  (forall ((x i64)) (! (in_range2 (to_rep2 x)) :pattern ((to_rep2 x)) )))

;; "coerce_axiom"
(assert
  (forall ((x Int))
    (! (=> (in_range2 x) (= (to_rep2 (of_rep2 x)) x)) :pattern ((to_rep2
                                                                  (of_rep2 x))) )))

(declare-sort map3 0)

(declare-datatypes ()
  ((map__ref2 (map__refqtmk2 (map__content2 map3)))))

(declare-sort gf16_normal_limb 0)

;; "to_rep"
(declare-fun to_rep3 (gf16_normal_limb) (_ BitVec 16))

;; "of_rep"
(declare-fun of_rep3 ((_ BitVec 16)) gf16_normal_limb)

;; "inversion_axiom"
(assert
  (forall ((x gf16_normal_limb))
    (! (= (of_rep3 (to_rep3 x)) x) :pattern ((to_rep3 x)) )))

;; "range_axiom"
(assert true)

;; "coerce_axiom"
(assert
  (forall ((x (_ BitVec 16)))
    (! (= (to_rep3 (of_rep3 x)) x) :pattern ((to_rep3 (of_rep3 x))) )))

(declare-sort map4 0)

(declare-datatypes ()
  ((map__ref3 (map__refqtmk3 (map__content3 map4)))))

(declare-datatypes ()
  ((t1 (tqtmk1 (rec__first1 tinteger_32B)(rec__last1 tinteger_32B)))))

;; "mk"
(declare-fun mk (Int
  Int) t1)

;; "mk_def"
(assert
  (forall ((f Int) (l Int))
    (! (=>
         (in_range f)
         (=>
           (in_range l)
           (and
             (= (to_rep1 (rec__first1 (mk f l))) f)
             (= (to_rep1 (rec__last1 (mk f l))) l)))) :pattern ((mk f l)) )))

(declare-datatypes ()
  ((us_t1 (us_tqtmk1 (elts1 map2)(rt1 t1)))))

;; "of_array"
(define-fun of_array ((a map2) (f Int) (l Int)) us_t1
  (us_tqtmk1 a (mk f l)))

;; "well_formed"
(define-fun well_formed1 ((a us_t1)) Bool
  (has_bounds1
    (elts1 a)
    (to_rep1 (rec__first1 (rt1 a)))
    (to_rep1 (rec__last1 (rt1 a)))))

;; "dynamic_invariant"
(define-fun dynamic_invariant1 ((temp___expr_486 us_t) (temp___is_init_482 Bool) (temp___skip_constant_483 Bool) (temp___do_toplevel_484 Bool) (temp___do_typ_inv_485 Bool)) Bool
  (and
    (=>
      (not (= temp___skip_constant_483 true))
      (dynamic_property
        0
        2147483647
        (first temp___expr_486)
        (last temp___expr_486)))
    (well_formed temp___expr_486)))

(declare-const sm map2)

(declare-const d map1)

(declare-const h map1)

(declare-const r map1)

(declare-const x map3)

(declare-const t2 Int)

(declare-const p map4)

;; "p'unused"
(define-fun pqtunused () map__ref3
  (map__refqtmk3 p))

;; "t'unused"
(define-fun tqtunused () int__ref
  (int__refqtmk t2))

;; "x'unused"
(define-fun xqtunused () map__ref2
  (map__refqtmk2 x))

;; "r'unused"
(define-fun rqtunused () map__ref
  (map__refqtmk r))

;; "h'unused"
(define-fun hqtunused () map__ref
  (map__refqtmk h))

;; "d'unused"
(define-fun dqtunused () map__ref
  (map__refqtmk d))

;; "sm'unused"
(define-fun smqtunused () map__ref1
  (map__refqtmk1 sm))

;; "Assume"
(assert
  (and
    (dynamic_property 0 2147483647 (to_rep1 sm__first) (to_rep1 sm__last))
    (well_formed1 (of_array sm (to_rep1 sm__first) (to_rep1 sm__last)))))

;; "Assume"
(assert (dynamic_invariant1 m true false true true))

;; "Assume"
(assert (dynamic_invariant sk true false true true))

;; "o"
(define-fun o () Int
  (last m))

;; "last'result'unused"
(define-fun lastqtresultqtunused () Int
  o)

;; "o"
(define-fun o1 () Bool
  (ite (<= o 2147483583) true false))

;; "infix <='result'unused"
(define-fun infix_lseqqtresultqtunused () Bool
  o1)

(declare-const o2 Int)

;; "Ensures"
(assert (= (to_rep1 sm__last) o2))

;; "to_rep'result'unused"
(define-fun to_repqtresultqtunused () Int
  o2)

(declare-const o3 Int)

;; "Ensures"
(assert (= (to_rep1 sm__first) o3))

;; "to_rep'result'unused"
(define-fun to_repqtresultqtunused1 () Int
  o3)

;; "map__content'result'unused"
(define-fun map__contentqtresultqtunused () map2
  sm)

;; "of_array'result'unused"
(define-fun of_arrayqtresultqtunused () us_t1
  (of_array sm o3 o2))

(declare-const o4 Int)

;; "Ensures"
(assert (= (to_rep1 sm__first) o4))

;; "to_rep'result'unused"
(define-fun to_repqtresultqtunused2 () Int
  o4)

;; "o"
(define-fun o5 () Bool
  (ite (= o4 0) true false))

;; "infix ='result'unused"
(define-fun infix_eqqtresultqtunused () Bool
  o5)

;; "o"
(define-fun o6 () Int
  (first m))

;; "first'result'unused"
(define-fun firstqtresultqtunused () Int
  o6)

;; "o"
(define-fun o7 () Bool
  (ite (= o6 0) true false))

;; "infix ='result'unused"
(define-fun infix_eqqtresultqtunused1 () Bool
  o7)

;; "o"
(define-fun o8 () Bool
  (and o7 o5))

;; "andb'result'unused"
(define-fun andbqtresultqtunused () Bool
  o8)

;; "o"
(define-fun o9 () Bool
  (and o8 o1))

;; "andb'result'unused"
(define-fun andbqtresultqtunused1 () Bool
  o9)

;; "H"
(assert (= o9 true))

;; "o"
(define-fun o10 () Int
  (last m))

;; "last'result'unused"
(define-fun lastqtresultqtunused1 () Int
  o10)

;; "o"
(define-fun o11 () Int
  (+ o10 64))

;; "infix +'result'unused"
(define-fun infix_plqtresultqtunused () Int
  o11)

;; Goal "def'vc"
;; File "sparknacl-sign.ads", line 42, characters 0-0
(assert
  (not (<= o11 2147483647)))

(check-sat)
